************************************************************************
file with basedata            : md383_.bas
initial value random generator: 1891837232
************************************************************************
projects                      :  1
jobs (incl. supersource/sink ):  22
horizon                       :  157
RESOURCES
  - renewable                 :  2   R
  - nonrenewable              :  2   N
  - doubly constrained        :  0   D
************************************************************************
PROJECT INFORMATION:
pronr.  #jobs rel.date duedate tardcost  MPM-Time
    1     20      0       21        4       21
************************************************************************
PRECEDENCE RELATIONS:
jobnr.    #modes  #successors   successors
   1        1          3           2   3   4
   2        3          3           5   6   8
   3        3          3           7  10  12
   4        3          2           8   9
   5        3          2          17  21
   6        3          1          13
   7        3          1          18
   8        3          2          15  16
   9        3          3          10  11  14
  10        3          2          13  16
  11        3          2          13  18
  12        3          3          14  16  17
  13        3          1          15
  14        3          1          19
  15        3          3          17  20  21
  16        3          2          19  20
  17        3          1          19
  18        3          2          20  21
  19        3          1          22
  20        3          1          22
  21        3          1          22
  22        1          0        
************************************************************************
REQUESTS/DURATIONS:
jobnr. mode duration  R 1  R 2  N 1  N 2
------------------------------------------------------------------------
  1      1     0       0    0    0    0
  2      1     1       5    9    8    2
         2     2       4    8    7    2
         3     9       3    5    4    1
  3      1     3       6    5   10    5
         2     6       5    5   10    2
         3     9       4    4   10    2
  4      1     1       8    5   10    4
         2     3       7    5    9    2
         3     6       3    5    8    1
  5      1     2       6    2    9    8
         2     4       5    2    7    7
         3     7       3    1    3    7
  6      1     1       8    4    6    8
         2     8       8    4    5    5
         3    10       8    3    4    1
  7      1     3       9    5    8    6
         2     6       6    4    5    6
         3     8       1    3    2    4
  8      1     1      10    9    8    4
         2     3      10    8    8    3
         3     7       9    6    5    2
  9      1     2       5    9    8    6
         2     9       4    7    7    3
         3    10       4    6    7    2
 10      1     6       3    5    9    6
         2     6       5    5    8    6
         3     8       1    4    7    4
 11      1     1       6    9    9    7
         2     6       5    8    6    7
         3     7       3    7    6    7
 12      1     3       6   10    5    2
         2     7       4    9    2    2
         3     7       5    9    3    1
 13      1     5       5    3    2    6
         2     9       4    3    1    6
         3    10       3    2    1    3
 14      1     2       6    6    9    4
         2     2       5    7    9    4
         3     5       1    5    8    2
 15      1     2       9   10    9    9
         2     7       9    9    4    7
         3     8       9    9    2    2
 16      1     2       6    6    7    7
         2     4       5    3    5    5
         3     4       2    5    6    6
 17      1     3       6    2    7    7
         2     4       3    2    4    5
         3     8       1    2    3    1
 18      1     1       2   10    5    7
         2     1       2   10    4    8
         3    10       1   10    3    7
 19      1     2       8    7    9    5
         2     3       6    7    9    2
         3     9       3    6    7    1
 20      1     2       6    6    7    8
         2     9       6    4    5    5
         3    10       5    3    5    4
 21      1     2       9    5    6    5
         2     4       8    4    6    4
         3     5       6    4    4    4
 22      1     0       0    0    0    0
************************************************************************
RESOURCEAVAILABILITIES:
  R 1  R 2  N 1  N 2
   29   24  151  117
************************************************************************
MAXIMAL LAGS:
from  to  type  delay
    1   22   ES      0
    1    2   ES      0
    2   22   ES      0
    1    3   ES      0
    3   22   ES      0
    1    4   ES      0
    4   22   ES      0
    1    5   ES      0
    5   22   ES      0
    1    6   ES      0
    6   22   ES      0
    1    7   ES      0
    7   22   ES      0
    1    8   ES      0
    8   22   ES      0
    1    9   ES      0
    9   22   ES      0
    1   10   ES      0
   10   22   ES      0
    1   11   ES      0
   11   22   ES      0
    1   12   ES      0
   12   22   ES      0
    1   13   ES      0
   13   22   ES      0
    1   14   ES      0
   14   22   ES      0
    1   15   ES      0
   15   22   ES      0
    1   16   ES      0
   16   22   ES      0
    1   17   ES      0
   17   22   ES      0
    1   18   ES      0
   18   22   ES      0
    1   19   ES      0
   19   22   ES      0
    1   20   ES      0
   20   22   ES      0
    1   21   ES      0
   21   22   ES      0
    1   22   ES      0
    2    5   SS     10
    2    5   SE      1
    2    5   ES      6
    2    5   EE      7
    2    6   SS     -8
    2    6   SE     -8
    2    6   ES      1
    2    6   EE      7
    2    8   SS      9
    2    8   SE     -9
    2    8   ES     -1
    2    8   EE      0
    3    7   SS      6
    3    7   SE      9
    3    7   ES      9
    3    7   EE     -4
    3   10   SS      7
    3   10   SE    -12
    3   10   ES      1
    3   10   EE    -12
    3   12   SS      4
    3   12   SE      8
    3   12   ES     -7
    3   12   EE      3
    4    8   SS      1
    4    8   SE     -9
    4    8   ES    -12
    4    8   EE    -12
    4    9   SS     -7
    4    9   SE     10
    4    9   ES     -5
    4    9   EE     -1
    5   17   SS    -10
    5   17   SE      9
    5   17   ES     -8
    5   17   EE    -12
    5   21   SS      7
    5   21   SE     12
    5   21   ES     -4
    5   21   EE     -1
    6   13   SS      6
    6   13   SE     10
    6   13   ES     12
    6   13   EE      0
    7   18   SS      6
    7   18   SE     -9
    7   18   ES     -2
    7   18   EE     12
    8   15   SS      3
    8   15   SE     -6
    8   15   ES     10
    8   15   EE     -4
    8   16   SS      7
    8   16   SE     -4
    8   16   ES     -6
    8   16   EE      5
    9   10   SS     -1
    9   10   SE      8
    9   10   ES      9
    9   10   EE      1
    9   11   SS     -6
    9   11   SE     -6
    9   11   ES      3
    9   11   EE     -1
    9   14   SS      6
    9   14   SE      4
    9   14   ES     10
    9   14   EE     11
   10   13   SS     -4
   10   13   SE      6
   10   13   ES     10
   10   13   EE    -10
   10   16   SS     -5
   10   16   SE     11
   10   16   ES      5
   10   16   EE     11
   11   13   SS      3
   11   13   SE     10
   11   13   ES      4
   11   13   EE      3
   11   18   SS    -12
   11   18   SE     -9
   11   18   ES      5
   11   18   EE      4
   12   14   SS    -10
   12   14   SE      8
   12   14   ES      9
   12   14   EE     10
   12   16   SS     10
   12   16   SE      9
   12   16   ES    -10
   12   16   EE     -9
   12   17   SS     11
   12   17   SE     -5
   12   17   ES     -5
   12   17   EE      3
   13   15   SS      7
   13   15   SE     -2
   13   15   ES      9
   13   15   EE     -7
   14   19   SS     -6
   14   19   SE     -6
   14   19   ES     -9
   14   19   EE     -4
   15   17   SS     -5
   15   17   SE     -7
   15   17   ES     -4
   15   17   EE    -10
   15   20   SS      8
   15   20   SE      2
   15   20   ES    -12
   15   20   EE      9
   15   21   SS      2
   15   21   SE     12
   15   21   ES     12
   15   21   EE     -9
   16   19   SS     -8
   16   19   SE      3
   16   19   ES      4
   16   19   EE      3
   16   20   SS     12
   16   20   SE      7
   16   20   ES      1
   16   20   EE     -5
   17   19   SS     -5
   17   19   SE     11
   17   19   ES      4
   17   19   EE      3
   18   20   SS     12
   18   20   SE      7
   18   20   ES      8
   18   20   EE    -11
   18   21   SS      4
   18   21   SE     11
   18   21   ES    -10
   18   21   EE     -6
************************************************************************
